job_count = 14 ;
duration = [|11, 5|4, 2|7, 2|15, 2|5, 8|7, 6|19, 2|18, 4|19, 2|13, 2|11, 6|4, 9|3, 6|4, 3|] ;
machine_count = 2 ;
cost = [|12, 29|16, 32|14, 29|13, 30|14, 31|11, 37|11, 37|12, 39|12, 20|17, 31|15, 28|11, 20|18, 21|17, 30|] ;
deadline = [35, 35, 35, 35, 35, 35, 35, 35, 35, 35, 35, 35, 35, 35] ;
release = [0, 0, 0, 0, 0, 0, 0, 0, 0, 0, 0, 0, 0, 0] ;
resource = [|2, 2|2, 2|2, 2|4, 4|3, 3|2, 2|2, 2|9, 9|8, 8|5, 5|1, 1|8, 8|5, 5|3, 3|] ;
capacities = [10, 10] ;
